

e = 20;

duracio =         [1, 1, 1, 1, 1, 1, 1, 1, 2, 6, 6, 5, 5, 5, 5, 5, 5, 1, 1, 3]; % duracio de la prova, en periodes de 15 min

pistaOcamp =      [0, 0, 0, 0, 0, 0, 0, 0, 0, 1, 1, 0, 0, 1, 1, 1, 1, 0, 0, 0];  % pista = 0, camp = 1

pistaNecessaria = [1, 1, 2, 2, 2, 2, 1, 2, 2, 1, 1, 1, 1, 1, 1, 1, 1, 2, 2, 2]; % 1 si necessiten mitja pista, 2 si la necessiten completa


descans =[| 0, 3, 3, 3, 3, 3, 3, 3, 3, 2, 1, 2, 2, 1, 1, 1, 1, 3, 3, 3 % descansos despres de fer la prova 1, la fila 1
          | 3, 0, 3, 3, 3, 3, 3, 3, 3, 2, 1, 2, 2, 1, 1, 1, 1, 3, 3, 3
          | 3, 3, 0, 3, 3, 3, 3, 3, 3, 2, 1, 2, 2, 1, 1, 1, 1, 3, 3, 3
          | 3, 3, 3, 0, 3, 3, 3, 3, 3, 2, 1, 2, 2, 1, 1, 1, 1, 3, 3, 3
          | 4, 4, 4, 4, 0, 5, 4, 4, 4, 3, 2, 3, 3, 2, 2, 2, 2, 4, 4, 5
          | 4, 4, 4, 4, 5, 0, 4, 4, 4, 3, 2, 3, 3, 2, 2, 2, 2, 4, 4, 5
          | 3, 3, 3, 3, 3, 3, 0, 3, 3, 2, 1, 2, 2, 1, 1, 1, 1, 3, 3, 3
          | 3, 3, 3, 3, 3, 3, 3, 0, 3, 2, 1, 2, 2, 1, 1, 1, 1, 3, 3, 3
          | 4, 4, 4, 4, 4, 4, 4, 4, 0, 3, 2, 3, 3, 2, 2, 2, 2, 4, 4, 4
          | 1, 1, 1, 1, 2, 2, 1, 1, 2, 0, 3, 3, 3, 1, 1, 1, 1, 1, 1, 2
          | 1, 1, 1, 1, 2, 2, 1, 1, 2, 3, 0, 3, 3, 1, 1, 1, 1, 1, 1, 2
          | 1, 1, 1, 1, 2, 2, 1, 1, 2, 3, 3, 0, 3, 1, 1, 1, 1, 1, 1, 2
          | 1, 1, 1, 1, 2, 2, 1, 1, 2, 3, 3, 3, 0, 1, 1, 1, 1, 1, 1, 2
          | 1, 1, 1, 1, 2, 2, 1, 1, 2, 1, 1, 1, 1, 0, 3, 3, 3, 1, 1, 2
          | 1, 1, 1, 1, 2, 2, 1, 1, 2, 1, 1, 1, 1, 3, 0, 3, 3, 1, 1, 2
          | 1, 1, 1, 1, 2, 2, 1, 1, 2, 1, 1, 1, 1, 3, 3, 0, 3, 1, 1, 2
          | 1, 1, 1, 1, 2, 2, 1, 1, 2, 1, 1, 1, 1, 3, 3, 3, 0, 1, 1, 2
          | 3, 3, 3, 3, 3, 3, 3, 3, 3, 3, 3, 3, 3, 3, 3, 3, 3, 0, 3, 3
          | 3, 3, 3, 3, 3, 3, 3, 3, 3, 3, 3, 3, 3, 3, 3, 3, 3, 3, 0, 3
          | 3, 3, 3, 4, 5, 5, 3, 3, 3, 2, 1, 2, 2, 1, 1, 1, 1, 3, 3, 0 |];

% participant comu a proves 1 i 3 (per tot i, j, sempre i < j per indicar si tenen participant comu)

participantComu = [| true , true , false, false, false, false, false, false, true , false, false, false, false, false, false, false, false, true , false, false
                   | false, true , false, false, false, false, false, false, false, false, false, true , false, false, true , false, false, false, false, false
                   | false, false, true , false, false, false, true , false, true , false, false, false, false, false, false, false, false, false, false, false
                   | false, false, false, true , true , false, false, false, false, true , false, false, true , false, false, false, true , false, false, false
                   | false, false, false, false, true , true , false, false, false, false, false, false, false, true , false, false, false, false, true , false
                   | false, false, false, false, false, true , false, false, false, false, false, false, false, false, true , false, true , false, false, false
                   | false, false, false, false, false, false, true , false, false, false, true , false, false, false, false, false, false, false, false, false
                   | false, false, false, false, false, false, false, true , false, false, false, false, false, false, false, false, false, false, false, false
                   | false, false, false, false, false, false, false, false, true , false, false, false, false, false, false, false, false, false, false, false
                   | false, false, false, false, false, false, false, false, false, true , false, false, false, true , false, false, false, false, true , false
                   | false, false, false, false, false, false, false, false, false, false, true , false, false, false, false, false, false, false, false, false
                   | false, false, false, false, false, false, false, false, false, false, false, true , false, false, false, false, false, true , false, false
                   | false, false, false, false, false, false, false, false, false, false, false, false, true , false, false, false, false, false, false, false
                   | false, false, false, false, false, false, false, false, false, false, false, false, false, true , false, false, true , false, false, false
                   | false, false, false, false, false, false, false, false, false, false, false, false, false, false, true , false, false, false, false, false
                   | false, false, false, false, false, false, false, false, false, false, false, false, false, false, false, true , false, false, false, false
                   | false, false, false, false, false, false, false, false, false, false, false, false, false, false, false, false, true , false, false, false
                   | false, false, false, false, false, false, false, false, false, false, false, false, false, false, false, false, false, true , false, false
                   | false, false, false, false, false, false, false, false, false, false, false, false, false, false, false, false, false, false, true , false
                   | false, false, false, false, false, false, false, false, false, false, false, false, false, false, false, false, false, false, false, true  |];